# Solution for model GasLib-40
# Objective value = 1.2846785811307434e+01
loadshed[innode_1] 0
loadshed[innode_2] 0
loadshed[innode_3] 0
loadshed[innode_4] 0
loadshed[innode_5] 0
loadshed[innode_6] 0
loadshed[innode_7] 0
loadshed[innode_8] 0
loadshed[source_1] -2.2371182272579970e-01
loadshed[source_2] -5.2616590353663506e-02
loadshed[source_3] 3.5759075249633632e-01
loadshed[sink_1] 0
loadshed[sink_2] 0
loadshed[sink_3] 0
loadshed[sink_4] 0
loadshed[sink_5] 0
loadshed[sink_6] 0
loadshed[sink_7] 0
loadshed[sink_8] 0
loadshed[sink_9] 0
loadshed[sink_10] 0
loadshed[sink_11] 0
loadshed[sink_12] 7.8553594769777935e-01
loadshed[sink_13] 0
loadshed[sink_14] 0
loadshed[sink_15] 0
loadshed[sink_16] 0
loadshed[sink_17] 0
loadshed[sink_18] 0
loadshed[sink_19] 0
loadshed[sink_20] 0
loadshed[sink_21] 0
loadshed[sink_22] 0
loadshed[sink_23] 0
loadshed[sink_24] 0
loadshed[sink_25] 0
loadshed[sink_26] 0
loadshed[sink_27] 0
loadshed[sink_28] 0
loadshed[sink_29] 0
flow[source_1,sink_3] 1.9345694197467242e+02
flow[innode_1,sink_16] 1.6354166666666970e+01
flow[innode_6,sink_13] 1.2920510281812881e+01
flow[sink_13,sink_14] -3.4336563848537871e+00
flow[sink_14,sink_10] -1.9787823051520263e+01
flow[sink_25,sink_26] 216.111547522028
flow[sink_26,sink_9] 1.2886897174191185e+02
flow[sink_9,sink_18] 1.1251480507524518e+02
flow[sink_26,sink_4] 70.8884091134496
flow[sink_4,sink_20] 0
flow[sink_18,sink_6] 96.1606384085785
flow[sink_25,innode_8] -1.6074860864133606e+02
flow[sink_6,sink_7] 4.7098138408578052e+01
flow[sink_6,sink_22] 3.2708333333333641e+01
flow[sink_7,sink_24] 3.6215714188692573e+01
flow[sink_22,sink_1] 1.6354166666666970e+01
flow[sink_24,sink_21] 19.8615475220259
flow[sink_21,sink_12] 3.5073808553592336e+00
flow[sink_7,sink_5] -5.4717424467810929e+00
flow[sink_5,sink_17] -2.1825909113447665e+01
flow[sink_17,sink_4] -5.4534242446782628e+01
flow[sink_17,sink_8] 1.6354166666668334e+01
flow[sink_3,sink_23] 16.3541666666697
flow[sink_8,sink_20] 0
flow[sink_25,sink_20] 1.6354166666668618e+01
flow[sink_25,sink_15] -1.0099178249584008e+02
flow[sink_15,sink_29] -6.5118342405498339e+01
flow[sink_29,sink_28] 1.6354166666667879e+01
flow[sink_29,sink_2] 6.8581773423675088e+01
flow[sink_2,sink_15] 5.2227606757008417e+01
flow[sink_29,innode_7] -1.6640844916250796e+02
flow[innode_4,sink_19] 1.0155865638486739e+02
flow[sink_19,innode_3] 3.3598667032086652e+01
flow[innode_4,innode_5] 0
flow[sink_27,innode_5] 0
flow[sink_27,sink_19] -1.6354166666679703e+01
flow[sink_10,sink_11] 3.2708333333333641e+01
flow[sink_10,innode_2] -3.5251656019434364e+01
flow[sink_10,innode_3] -3.3598667032086652e+01
flow[innode_6,sink_25] -1.2920510281812881e+01
flow[sink_11,innode_1] 1.6354166666666970e+01
flow[sink_19,innode_2] 3.5251656019434364e+01
flow[source_3,innode_4] 1.0155865638486739e+02
flow[source_2,innode_7] 1.6640844916250796e+02
flow[sink_3,innode_8] 1.6074860864133606e+02
pressure[innode_1] 7.4883953134579286e+01
pressure[innode_2] 7.6898850056917681e+01
pressure[innode_3] 7.6824449613411431e+01
pressure[innode_4] 81.01325
pressure[innode_5] 81.01325
pressure[innode_6] 7.4164801990220724e+01
pressure[innode_7] 81.01325
pressure[innode_8] 80.3665973462092
pressure[source_1] 81.01325
pressure[source_2] 81.01325
pressure[source_3] 81.01325
pressure[sink_1] 4.2491078089946093e+01
pressure[sink_2] 7.4825222169206043e+01
pressure[sink_3] 80.3665973462092
pressure[sink_4] 49.9312568114409
pressure[sink_5] 4.6221265419481320e+01
pressure[sink_6] 4.4592155700333464e+01
pressure[sink_7] 43.9456105249542
pressure[sink_8] 4.7230052690817196e+01
pressure[sink_9] 5.1231052053104122e+01
pressure[sink_10] 7.5035654442182832e+01
pressure[sink_11] 7.4883953134579286e+01
pressure[sink_12] 1.01325
pressure[sink_13] 7.4093573376254938e+01
pressure[sink_14] 74.0997181968385
pressure[sink_15] 7.4654710543923514e+01
pressure[sink_16] 73.8623032997616
pressure[sink_17] 4.7847137886230819e+01
pressure[sink_18] 4.7159931053688680e+01
pressure[sink_19] 7.6898850056917681e+01
pressure[sink_20] 7.0266018662054492e+01
pressure[sink_21] 2.2613680680387538e+00
pressure[sink_22] 43.5548472323011
pressure[sink_23] 8.0201879334549417e+01
pressure[sink_24] 2.4813162532667259e+00
pressure[sink_25] 7.4164801990220724e+01
pressure[sink_26] 5.8944192613517970e+01
pressure[sink_27] 7.6547720059774178e+01
pressure[sink_28] 7.6267193615636359e+01
pressure[sink_29] 7.6562475889253534e+01
interdiction[source_1,sink_3] 0
interdiction[innode_1,sink_16] 0
interdiction[innode_6,sink_13] 0
interdiction[sink_13,sink_14] 0
interdiction[sink_14,sink_10] 0
interdiction[sink_25,sink_26] 0
interdiction[sink_26,sink_9] 0
interdiction[sink_9,sink_18] 0
interdiction[sink_26,sink_4] 0
interdiction[sink_4,sink_20] 1
interdiction[sink_18,sink_6] 0
interdiction[sink_25,innode_8] 0
interdiction[sink_6,sink_7] 0
interdiction[sink_6,sink_22] 0
interdiction[sink_7,sink_24] 0
interdiction[sink_22,sink_1] 0
interdiction[sink_24,sink_21] 0
interdiction[sink_21,sink_12] 0
interdiction[sink_7,sink_5] 0
interdiction[sink_5,sink_17] 0
interdiction[sink_17,sink_4] 0
interdiction[sink_17,sink_8] 0
interdiction[sink_3,sink_23] 0
interdiction[sink_8,sink_20] 1
interdiction[sink_25,sink_20] 0
interdiction[sink_25,sink_15] 0
interdiction[sink_15,sink_29] 0
interdiction[sink_29,sink_28] 0
interdiction[sink_29,sink_2] 0
interdiction[sink_2,sink_15] 0
interdiction[sink_29,innode_7] 0
interdiction[innode_4,sink_19] 0
interdiction[sink_19,innode_3] 0
interdiction[innode_4,innode_5] 0
interdiction[sink_27,innode_5] 1
interdiction[sink_27,sink_19] 0
interdiction[sink_10,sink_11] 0
interdiction[sink_10,innode_2] 0
interdiction[sink_10,innode_3] 0
interdiction[innode_6,sink_25] 0
interdiction[sink_11,innode_1] 0
interdiction[sink_19,innode_2] 0
interdiction[source_3,innode_4] 0
interdiction[source_2,innode_7] 0
interdiction[sink_3,innode_8] 0
WCcheckFlow[source_1,sink_3] 39
WCcheckFlow[innode_1,sink_16] 1
WCcheckFlow[innode_6,sink_13] 13
WCcheckFlow[sink_13,sink_14] 12
WCcheckFlow[sink_14,sink_10] 11
WCcheckFlow[sink_25,sink_26] 14
WCcheckFlow[sink_26,sink_9] 12
WCcheckFlow[sink_9,sink_18] 11
WCcheckFlow[sink_26,sink_4] 1
WCcheckFlow[sink_4,sink_20] 0
WCcheckFlow[sink_18,sink_6] 10
WCcheckFlow[sink_25,innode_8] -36
WCcheckFlow[sink_6,sink_7] 7
WCcheckFlow[sink_6,sink_22] 2
WCcheckFlow[sink_7,sink_24] 3
WCcheckFlow[sink_22,sink_1] 1
WCcheckFlow[sink_24,sink_21] 2
WCcheckFlow[sink_21,sink_12] 1
WCcheckFlow[sink_7,sink_5] 3
WCcheckFlow[sink_5,sink_17] 2
WCcheckFlow[sink_17,sink_4] 0
WCcheckFlow[sink_17,sink_8] 1
WCcheckFlow[sink_3,sink_23] 1
WCcheckFlow[sink_8,sink_20] 0
WCcheckFlow[sink_25,sink_20] 1
WCcheckFlow[sink_25,sink_15] 6
WCcheckFlow[sink_15,sink_29] 5
WCcheckFlow[sink_29,sink_28] 1
WCcheckFlow[sink_29,sink_2] 1
WCcheckFlow[sink_2,sink_15] 0
WCcheckFlow[sink_29,innode_7] 2
WCcheckFlow[innode_4,sink_19] -3
WCcheckFlow[sink_19,innode_3] -5
WCcheckFlow[innode_4,innode_5] 1
WCcheckFlow[sink_27,innode_5] 0
WCcheckFlow[sink_27,sink_19] -1
WCcheckFlow[sink_10,sink_11] 3
WCcheckFlow[sink_10,innode_2] 1
WCcheckFlow[sink_10,innode_3] 6
WCcheckFlow[innode_6,sink_25] -14
WCcheckFlow[sink_11,innode_1] 2
WCcheckFlow[sink_19,innode_2] 0
WCcheckFlow[source_3,innode_4] -1
WCcheckFlow[source_2,innode_7] -1
WCcheckFlow[sink_3,innode_8] 37
